code/experiments/eil51_sub/eil51_n14.tsp
NAME : eil51_n14
COMMENT : 14-city problem (Christofides/Eilon)
TYPE : TSP
DIMENSION : 14
EDGE_WEIGHT_TYPE : CEIL_2D
NODE_COORD_SECTION
1 40 30
2 21 47
3 52 33
4 42 41
5 5 25
6 36 16
7 17 33
8 42 57
9 58 27
10 63 69
11 32 22
12 45 35
13 32 39
14 25 32
EOF
