code/experiments/eil51_sub/eil51_n14.opt.tour
14
0 11 2 8 9 7 3 12 1 4 
6 13 10 5 
